
Gurobi 11.0.3 (linux64) logging started Sun Nov 24 19:11:21 2024

Set parameter LogFile to value "/home/yihong/Coding/OR_SUC/SUC_results_bigM100000_thread4/case24_ieee_rts_theta0.1_epsilon0.05_gurobi_seed1250000_num_gen100_N_WDR100_load_scaling_factor1_proposed_T8quadra_cost.txt"
Set parameter TimeLimit to value 3600
Gurobi Optimizer version 11.0.3 build v11.0.3rc0 (linux64 - "Ubuntu 20.04.6 LTS")

CPU model: AMD EPYC 7532 32-Core Processor, instruction set [SSE2|AVX|AVX2]
Thread count: 64 physical cores, 128 logical processors, using up to 4 threads

Optimize a model with 18854 rows, 10021 columns and 437434 nonzeros
Model fingerprint: 0x1d341574
Model has 800 quadratic constraints
Variable types: 9221 continuous, 800 integer (800 binary)
Coefficient statistics:
  Matrix range     [3e-04, 2e+03]
  QMatrix range    [2e-03, 8e-03]
  QLMatrix range   [8e-02, 6e+01]
  Objective range  [1e+00, 1e+00]
  Bounds range     [1e+00, 1e+00]
  RHS range        [1e+00, 9e+03]
Presolve removed 15463 rows and 4339 columns
Presolve time: 0.12s
Presolved: 3391 rows, 5682 columns, 19136 nonzeros
Presolved model has 800 quadratic constraint(s)
Variable types: 4882 continuous, 800 integer (800 binary)

Root relaxation: objective 1.101601e+04, 2701 iterations, 0.04 seconds (0.06 work units)

    Nodes    |    Current Node    |     Objective Bounds      |     Work
 Expl Unexpl |  Obj  Depth IntInf | Incumbent    BestBd   Gap | It/Node Time

H    0     0                    231754.32309 11016.0138  95.2%     -    0s
*    0     0               0    231754.32309 11016.0138  95.2%     -    0s
     0     0 125213.139    0  200 231754.323 125213.139  46.0%     -    0s
     0     0 215900.317    0    8 231754.323 215900.317  6.84%     -    0s
     0     0 215952.601    0   16 231754.323 215952.601  6.82%     -    0s
     0     0 215952.813    0    8 231754.323 215952.813  6.82%     -    0s
     0     0 215954.934    0    8 231754.323 215954.934  6.82%     -    0s
     0     2 215954.934    0    8 231754.323 215954.934  6.82%     -    1s
H   24    25                    216003.04116 215964.584  0.02%  11.6    1s
*   24    25               7    216003.04116 215964.584  0.02%  13.0    1s

Cutting planes:
  Gomory: 118
  Lift-and-project: 16
  Implied bound: 155
  MIR: 21
  Flow cover: 42
  RLT: 133
  Relax-and-lift: 42

Explored 30 nodes (7405 simplex iterations) in 1.57 seconds (1.52 work units)
Thread count was 4 (of 128 available processors)

Solution count 3: 216003 216003 231754 

Optimal solution found (tolerance 1.00e-03)
Warning: max constraint violation (1.4273e-08) exceeds tolerance
Best objective 2.160030411606e+05, best bound 2.159645835325e+05, gap 0.0178%
